WARNING: for repeatability, setting FPU to use double precision
============================[ Problem Statistics ]=============================
|                                                                             |
|  Number of symmetries:          15                                          |
|  Number of invertingSyms:        0                                          |
|  Number of variables:            72                                         |
|  Number of clauses:             297                                         |
|  Parse time:                   0.00 s                                       |
|                                                                             |
============================[ Search Statistics ]==============================
| Conflicts |          ORIGINAL         |          LEARNT          | Progress |
|           |    Vars  Clauses Literals |    Limit  Clauses Lit/Cl |          |
===============================================================================
|       100 |      72      297      648 |      108      102     27 |  0.020 % |
|       250 |      72      297      648 |      119       90     18 |  0.020 % |
|       475 |      72      297      648 |      131      106     20 |  0.020 % |
|       812 |      72      297      648 |      144       75     18 |  0.020 % |
|      1318 |      72      297      648 |      159      121     18 |  0.020 % |
===============================================================================
restarts              : 13
conflicts             : 1906           (inf /sec)
symconflicts          : 259            (inf /sec)
decisions             : 2941           (0.00 % random) (inf /sec)
propagations          : 30820          (inf /sec)
sympropagations       : 828            (inf /sec)
conflict literals     : 42526          (4.96 % deleted)
Memory used           : 5.00 MB
CPU time              : 0 s

UNSATISFIABLE
